29605
24543
23533
23364
23364
23048
22729
22559
22585
22559
22585
22611
22492
22553
22492
22458
22519
22580
22458
22458
22419
22419
22419
22419
22419
22419
22419
22419
22419
22419
22419
22419
22419
22419
22419
22419
22419
22419
22419
22419
22419
22419
22419
22419
22419
22419
22419
22419
22419
22419
22419
22419
22419
22419
22419
22419
22419
22419
22419
22419
22419
22419
22419
22419
22419
22419
22419
22419
22419
22419
22419
22419
22419
22419
22419
22419
22419
22419
22419
22419
22419
22419
22419
22419
22419
22419
22419
22419
22419
22419
22419
22419
22419
22419
22419
22419
22419
22419
22419
22419
22419
22419
22419
22419
22419
22419
22419
22419
22419
22419
22419
22419
22419
22419
22419
22419
22419
22419
22419
22419
22419
22419
22419
22419
22419
22419
22419
22419
22419
22419
22419
22419
22419
22419
22419
22419
22419
22419
22419
22419
22419
22419
22419
22419
22419
22419
22419
22419
22419
22419
22419
22419
22419
22419
22419
22419
22419
22419
22419
22419
22419
22419
22419
22419
22419
22419
22419
22419
22419
22419
22419
22419
22419
22419
22419
22419
22419
22419
22419
22419
22419
22419
22419
22419
22419
22419
22419
22419
22419
22419
22419
22419
22419
22419
22419
22419
22419
22419
22419
22419
22419
22419
22419
22419
22419
22419
22419
22419
22419
22419
22419
22419
22419
22419
22419
22419
22419
22419
22419
22419
22419
22419
22419
22419
22419
22419
22419
22419
22419
22419
22419
22419
22419
22419
22419
22419
22419
22419
22419
22419
22419
22419
22419
22419
22419
22419
22419
22419
22419
22419
22419
22419
22419
22419
22419
22419
22419
22419
22419
22419
22419
22419
22419
22419
22419
22419
22419
22419
22419
22419
22419
22419
22419
22419
22419
22419
22419
22419
22419
22419
22419
22419
22419
22419
22419
22419
22419
22419
22419
22419
22419
22419
22419
22419
22419
22419
22419
22419
22419
22419
22419
22419
22419
22419
22419
22419
22419
22419
22419
22419
22419
22419
22419
22419
22419
22419
22419
22419
22419
22419
22419
22419
22419
22419
22419
22419
22419
22419
22419
22419
22419
22419
22419
22419
22419
22419
22419
22419
22419
22419
22419
22419
22419
22419
22419
22419
22419
22419
22419
22419
22419
22419
22419
22419
22419
22419
22419
22419
22419
22419
22419
22419
22419
22419
22419
22419
22419
22419
22419
22419
22419
22419
22419
22419
22419
22419
22419
22419
22419
22419
22419
22419
22419
22419
22419
22419
22419
22419
22419
22419
22419
22419
22419
22419
22419
22419
22419
22419
22419
22419
22419
22419
22419
22419
22419
22419
22419
22419
22419
22419
22419
22419
22419
22419
22419
22419
22419
22419
22419
22419
22419
22419
22419
22419
22419
22419
22419
22419
22419
22419
22419
22419
22419
22419
22419
22419
22419
22419
22419
22419
22419
22419
22419
22419
22419
22419
22419
22419
22419
22419
22419
22419
22419
22419
22419
22419
22419
22419
22419
22419
22419
22419
22419
22419
22419
22419
22419
22419
22419
22419
22419
22419
22419
22419
22419
22419
22419
22419
22419
22419
22419
22419
22419
22419
22419
22419
22419
22419
22419
22419
22419
22419
22419
22419
22419
22419
22419
22419
22419
22419
22419
